scheduleLength  = 7;
numberEmployees = 13;
numberShifts    = 3;
minDaysOff      = 1;
maxDaysOff      = 4;
minDaysWork     = 4;
maxDaysWork     = 7;
shiftNames      = ["D", "A", "N"];
minDaysShift    = [2, 2, 2];
maxDaysShift    = [6, 5, 4];

requirements = [| 7, 7, 6, 6, 5, 5, 3,
                | 3, 3, 3, 3, 3, 4, 3,
                | 2, 2, 2, 2, 2, 0, 0 |];

numberForbiddenShifts2 = 3;
forbiddenShifts2 = [| 3, 1,
                    | 3, 2,
                    | 2, 1 |];

numberForbiddenShifts3 = 3;
forbiddenShifts3 = [| 2, 1,
                    | 3, 2,
                    | 3, 1 |];

